c Random CNF formula
p cnf 12 60
-6 -1 -3 0
-8 -12 3 0
-2 1 -7 0
1 3 5 0
6 -10 -11 0
-11 5 2 0
3 -4 10 0
-7 -4 11 0
5 -8 -1 0
-1 -7 -3 0
8 -11 -12 0
12 -11 -9 0
10 3 -4 0
-5 10 11 0
-6 2 9 0
3 1 9 0
-5 3 10 0
2 -11 12 0
11 7 8 0
-12 -5 3 0
3 11 4 0
12 6 -5 0
1 -2 10 0
-10 2 -3 0
-7 -9 -4 0
11 12 9 0
2 -8 -7 0
12 -7 -5 0
-2 -9 -1 0
4 10 5 0
-1 6 -5 0
-11 -5 3 0
3 -9 -4 0
8 6 12 0
11 -1 7 0
-9 4 -5 0
-1 2 -3 0
-1 -10 11 0
8 -10 -7 0
2 -9 10 0
9 10 -1 0
-5 -4 -6 0
-6 -7 -9 0
11 -1 5 0
-8 11 -4 0
12 -9 5 0
8 11 9 0
3 10 12 0
-7 11 9 0
-4 -3 -1 0
-1 -10 3 0
5 10 -4 0
-4 10 2 0
-12 9 -1 0
-2 10 -11 0
12 5 -9 0
-12 -6 3 0
-3 -7 10 0
-1 -12 7 0
-12 -1 -10 0
